c A SAT instance generated from a 3-CNF formula that had 12 clauses and 6 variables
p cnf 6 12
-6 -1 -5 0
5 -4 -1 0
-3 -6 -1 0
6 -2 -4 0
-4 -2 -1 0
1 5 3 0
6 -5 -2 0
4 -1 -3 0
-2 -4 5 0
-6 -3 1 0
3 4 -1 0
1 5 3 0
